Problem:    
Rows:       105
Columns:    45 (34 integer, 34 binary)
Non-zeros:  302
Status:     INTEGER OPTIMAL
Objective:  value = 23.641695 (MINimum)

   No.   Row name        Activity     Lower bound   Upper bound
------ ------------    ------------- ------------- -------------
     1 r.5                   23.6417             0               
     2 r.6                   -6.0695      -1988.14               
     3 r.7                   2023.64             0               
     4 r.8                  -1979.91      -1996.77               
     5 r.9                   23.6417             0               
     6 r.10                 -17.9295      -1991.72               
     7 r.11                  2023.64             0               
     8 r.12                 -1983.14      -1998.09               
     9 r.13                  2023.64             0               
    10 r.14                 -1976.36      -1981.47               
    11 r.15                  23.6417             0               
    12 r.16                 -1970.17      -1993.81               
    13 r.17                  23.6417             0               
    14 r.18                   5.1152      -1988.82               
    15 r.19                  2023.64             0               
    16 r.20                 -1976.36      -1996.45               
    17 r.21                  2023.64             0               
    18 r.22                 -1999.46      -1999.46               
    19 r.23                  23.6417             0               
    20 r.24                 0.535875      -1998.45               
    21 r.25                        1             1             = 
    22 r.26                        1             1             = 
    23 r.27                        1             1             = 
    24 r.28                        1             1             = 
    25 r.29                        1             1             = 
    26 r.30                  1988.14        8.2768               
    27 r.31                 -1988.14      -1988.14               
    28 r.32                  1996.77       1.91233               
    29 r.33                 -1996.77      -1996.77               
    30 r.34                  29.7112       18.5265               
    31 r.35                 -29.7112      -1988.14               
    32 r.36                  9.74193        6.1924               
    33 r.37                 -9.74193      -1996.77               
    34 r.38                  11.1847       11.1847               
    35 r.39                 -11.1847      -1988.14               
    36 r.40                  3.54953       3.54953               
    37 r.41                 -3.54953      -1996.77               
    38 r.42                 -6.60538      -1983.56               
    39 r.43                 -1980.44      -1985.16               
    40 r.44                 -6.60538      -1983.56               
    41 r.45                 -1980.44      -1985.16               
    42 r.46                    11.86         11.86               
    43 r.47                   -11.86      -1991.72               
    44 r.48                    3.231         3.231               
    45 r.49                   -3.231      -1998.09               
    46 r.50                  41.5712       18.5265               
    47 r.51                 -41.5712      -1991.72               
    48 r.52                  12.9729        6.1924               
    49 r.53                 -12.9729      -1998.09               
    50 r.54                  23.0447       11.1847               
    51 r.55                 -23.0447      -1991.72               
    52 r.56                  6.78053       3.54953               
    53 r.57                 -6.78053      -1998.09               
    54 r.58                 -18.4654      -1987.14               
    55 r.59                 -1983.67      -1986.48               
    56 r.60                 -18.4654      -1987.14               
    57 r.61                 -1983.67      -1986.48               
    58 r.62                  1970.29         11.86               
    59 r.63                 -1970.29      -1981.47               
    60 r.64                  1990.26         3.231               
    61 r.65                 -1990.26      -1993.81               
    62 r.66                  1958.43        8.2768               
    63 r.67                 -1958.43      -1981.47               
    64 r.68                  1987.03       1.91233               
    65 r.69                 -1987.03      -1993.81               
    66 r.70                  1981.47       11.1847               
    67 r.71                 -1981.47      -1981.47               
    68 r.72                  1993.81       3.54953               
    69 r.73                 -1993.81      -1993.81               
    70 r.74                 -1976.89      -1976.89               
    71 r.75                  -1970.7       -1982.2               
    72 r.76                 -1976.89      -1976.89               
    73 r.77                  -1970.7       -1982.2               
    74 r.78                  1988.82         11.86               
    75 r.79                 -1988.82      -1988.82               
    76 r.80                  1996.45         3.231               
    77 r.81                 -1996.45      -1996.45               
    78 r.82                  1976.96        8.2768               
    79 r.83                 -1976.96      -1988.82               
    80 r.84                  1993.22       1.91233               
    81 r.85                 -1993.22      -1996.45               
    82 r.86                  18.5265       18.5265               
    83 r.87                 -18.5265      -1988.82               
    84 r.88                   6.1924        6.1924               
    85 r.89                  -6.1924      -1996.45               
    86 r.90                  4.57932      -1984.24               
    87 r.91                 -1976.89      -1984.84               
    88 r.92                  4.57932      -1984.24               
    89 r.93                 -1976.89      -1984.84               
    90 r.94                 -6.60538      -1983.56               
    91 r.95                 -1980.44      -1985.16               
    92 r.96                 -6.60538      -1983.56               
    93 r.97                 -1980.44      -1985.16               
    94 r.98                 -18.4654      -1987.14               
    95 r.99                 -1983.67      -1986.48               
    96 r.100                -18.4654      -1987.14               
    97 r.101                -1983.67      -1986.48               
    98 r.102                -1976.89      -1976.89               
    99 r.103                 -1970.7       -1982.2               
   100 r.104                -1976.89      -1976.89               
   101 r.105                 -1970.7       -1982.2               
   102 r.106                 4.57932      -1984.24               
   103 r.107                -1976.89      -1984.84               
   104 r.108                 4.57932      -1984.24               
   105 r.109                -1976.89      -1984.84               

   No. Column name       Activity     Lower bound   Upper bound
------ ------------    ------------- ------------- -------------
     1 tt                    23.6417             0               
     2 s_1_1        *              0             0             1 
     3 t_1_1                 29.7112             0               
     4 s_2_1        *              1             0             1 
     5 t_2_1                 3.54953             0               
     6 s_1_2        *              0             0             1 
     7 t_1_2                 41.5712             0               
     8 s_2_2        *              1             0             1 
     9 t_2_2                 6.78053             0               
    10 s_1_3        *              1             0             1 
    11 t_1_3                       0             0               
    12 s_2_3        *              0             0             1 
    13 t_2_3                 1993.81             0               
    14 s_1_4        *              0             0             1 
    15 t_1_4                 18.5265             0               
    16 s_2_4        *              1             0             1 
    17 t_2_4                       0             0               
    18 s_1_5        *              1             0             1 
    19 t_1_5                 23.1058             0               
    20 s_2_5        *              0             0             1 
    21 t_2_5                 23.1058             0               
    22 u_1_1_2      *              1             0             1 
    23 u_2_1_2      *              1             0             1 
    24 u_1_1_3      *              0             0             1 
    25 u_2_1_3      *              1             0             1 
    26 u_1_1_4      *              0             0             1 
    27 u_2_1_4      *              0             0             1 
    28 u_1_2_1      *              0             0             1 
    29 u_2_2_1      *              0             0             1 
    30 u_1_2_3      *              0             0             1 
    31 u_2_2_3      *              1             0             1 
    32 u_1_2_4      *              0             0             1 
    33 u_2_2_4      *              0             0             1 
    34 u_1_3_1      *              1             0             1 
    35 u_2_3_1      *              0             0             1 
    36 u_1_3_2      *              1             0             1 
    37 u_2_3_2      *              0             0             1 
    38 u_1_3_4      *              1             0             1 
    39 u_2_3_4      *              0             0             1 
    40 u_1_4_1      *              1             0             1 
    41 u_2_4_1      *              1             0             1 
    42 u_1_4_2      *              1             0             1 
    43 u_2_4_2      *              1             0             1 
    44 u_1_4_3      *              0             0             1 
    45 u_2_4_3      *              1             0             1 

Integer feasibility conditions:

KKT.PE: max.abs.err = 0.00e+00 on row 0
        max.rel.err = 0.00e+00 on row 0
        High quality

KKT.PB: max.abs.err = 5.68e-14 on row 82
        max.rel.err = 2.91e-15 on row 82
        High quality

End of output
